(set-option :produce-models true)
(set-logic QF_UF)
(declare-fun p17() Bool)
(declare-fun p34() Bool)
(declare-fun p35() Bool)
(declare-fun p38() Bool)
(declare-fun p13() Bool)
(declare-fun p23() Bool)
(declare-fun p1() Bool)
(declare-fun p21() Bool)
(declare-fun p5() Bool)
(declare-fun p4() Bool)
(declare-fun p2() Bool)
(declare-fun p16() Bool)
(declare-fun p31() Bool)
(declare-fun p19() Bool)
(declare-fun p30() Bool)
(declare-fun p3() Bool)
(declare-fun p28() Bool)
(declare-fun p9() Bool)
(declare-fun p0() Bool)
(declare-fun p33() Bool)
(declare-fun p39() Bool)
(declare-fun p11() Bool)
(declare-fun p15() Bool)
(declare-fun p12() Bool)
(declare-fun p22() Bool)
(declare-fun p14() Bool)
(declare-fun p29() Bool)
(declare-fun p10() Bool)
(declare-fun p20() Bool)
(declare-fun p6() Bool)
(declare-fun p37() Bool)
(declare-fun p18() Bool)
(declare-fun p32() Bool)
(declare-fun p36() Bool)
(declare-fun p25() Bool)
(declare-fun p7() Bool)
(declare-fun p26() Bool)
(declare-fun p24() Bool)
(declare-fun p27() Bool)
(declare-fun p8() Bool)
(assert
(and (or (not p17) (not p34) p35) (or p38 (not p13) p23) (or (not p1) (not p21) (not p5)) (or p4 (not p2) (not p16)) (or (not p31) (not p5) p38) (or p19 (not p30) p3) (or (not p28) (not p9) p23) (or p28 (not p0) (not p33)) (or p39 p11 (not p28)) (or p9 (not p17) (not p4)) (or p15 (not p4) (not p12)) (or (not p5) (not p34) p4) (or (not p22) (not p5) (not p30)) (or p14 p14 (not p13)) (or p16 (not p19) (not p2)) (or p1 (not p29) (not p4)) (or (not p10) (not p13) p20) (or (not p6) p1 (not p34)) (or (not p34) (not p37) p18) (or (not p32) p4 p33) (or (not p37) p36 p37) (or (not p0) (not p16) (not p15)) (or (not p20) (not p22) p25) (or (not p36) (not p38) (not p36)) (or p38 (not p7) p1) (or (not p6) (not p39) (not p34)) (or p9 (not p7) (not p26)) (or (not p34) (not p12) (not p13)) (or p37 (not p15) p23) (or p34 (not p24) (not p27)) (or p20 (not p32) (not p27)) (or (not p5) (not p15) p0) (or p0 p27 p11) (or p28 p8 p11) (or p14 (not p4) (not p17)) (or (not p5) (not p24) (not p30)) (or (not p30) (not p4) p7) (or (not p23) p3 p10) (or (not p13) (not p16) p10) (or p36 (not p9) p33) (or (not p23) (not p19) p36) (or p1 (not p23) p25) (or (not p36) p6 p38) (or p2 p16 (not p39)) (or (not p14) (not p33) (not p14)) (or (not p10) p38 p15) (or (not p34) (not p12) (not p1)) (or (not p39) (not p35) (not p24)) (or p13 (not p28) p25) (or p14 p30 p25) (or (not p33) (not p4) p25) (or p30 p38 (not p27)) (or (not p19) p25 p28) (or (not p29) (not p35) (not p2)) (or p5 p23 p0) (or (not p17) (not p9) p11) (or (not p20) p20 p32) (or p17 (not p28) (not p2)) (or p5 p35 (not p29)) (or p0 (not p5) (not p39)) (or (not p36) p0 (not p29)) (or (not p30) (not p3) (not p34)) (or (not p1) p22 p20) (or p35 (not p23) p7) (or (not p17) (not p4) (not p9)) (or (not p29) p6 (not p20)) (or (not p17) p6 p7) (or p23 (not p29) p3) (or p12 (not p11) (not p13)) (or (not p11) p35 p32) (or (not p7) p30 (not p39)) (or p30 (not p28) p29) (or (not p28) (not p14) (not p38)) (or (not p14) p1 (not p35)) (or (not p18) p7 p28) (or p39 (not p36) (not p32)) (or (not p32) p9 (not p37)) (or (not p6) p10 (not p34)) (or p7 p0 p23) (or p5 p26 (not p32)) (or p22 p16 (not p20)) (or (not p32) (not p28) (not p3)) (or (not p4) p20 (not p31)) (or (not p27) p4 p1) (or (not p28) p21 (not p29)) (or p31 p15 (not p12)) (or (not p27) (not p22) p23) (or p38 (not p3) (not p36)) (or p19 (not p16) p24) (or p38 (not p25) (not p4)) (or (not p0) (not p19) p34) (or (not p35) (not p26) p4) (or (not p11) p2 (not p25)) (or p0 (not p30) p7) (or (not p24) (not p21) (not p8)) (or p31 p29 (not p32)) (or p6 p39 (not p11)) (or (not p15) p12 (not p30)) (or p31 (not p23) p17) (or (not p39) (not p20) (not p9)) (or p29 (not p6) (not p5)) (or p34 p18 p28) (or p5 (not p17) (not p28)) (or (not p36) p29 p19) (or (not p1) (not p15) (not p15)) (or p33 p25 (not p13)) (or p29 (not p9) (not p3)) (or p0 p9 (not p33)) (or p31 (not p1) p1) (or p4 p11 (not p8)) (or (not p27) (not p4) (not p5)) (or (not p31) p30 p9) (or p19 (not p37) (not p16)) (or (not p9) p24 p4) (or (not p32) (not p0) (not p33)) (or p28 (not p35) (not p15)) (or p15 (not p4) p21) (or (not p28) (not p32) p16) (or p36 (not p8) p19) (or (not p29) p2 (not p38)) (or (not p8) (not p16) (not p21)) (or (not p32) p11 p28) (or (not p7) (not p19) (not p29)) (or p1 p39 p24) (or (not p21) p10 (not p6)) (or p2 (not p29) (not p13)) (or (not p36) (not p1) p20) (or p38 p14 (not p15)) (or (not p29) p17 (not p37)) (or p30 (not p29) (not p13)) (or p20 p10 p21) (or (not p15) p10 (not p29)) (or p3 (not p27) p9) (or (not p34) (not p29) p0) (or p4 p29 (not p27)) (or p27 p33 (not p31)) (or p9 p10 (not p18)) (or (not p9) (not p28) (not p2)) (or (not p19) (not p18) p22) (or p26 p12 (not p23)) (or p7 p4 p28) (or (not p2) (not p23) (not p13)) (or p26 (not p36) p26) (or (not p32) (not p12) (not p6)) (or (not p6) (not p24) (not p10)) (or p37 (not p30) p32) (or p25 (not p38) p26) (or (not p12) (not p23) (not p0)) (or (not p13) (not p9) (not p17)) (or (not p38) (not p35) p35) (or p35 p16 (not p16)) (or p34 p1 p10) (or (not p30) p17 p2) (or p35 p14 p6) (or p38 p15 p11) (or (not p21) p39 p7) (or p14 (not p12) p18) (or (not p10) p4 (not p8)) (or p34 p15 p36) (or p25 (not p14) (not p9)) (or p8 (not p31) p25) (or (not p21) (not p30) (not p5)) (or (not p20) (not p37) p14) (or (not p37) p18 p19) (or p29 p12 (not p6)) (or p38 p31 (not p32)) (or (not p22) (not p21) (not p32)) (or (not p7) (not p18) p19) (or p9 (not p3) p4) (or (not p7) (not p5) p32) (or (not p6) (not p20) p1))
)
(check-sat)
(get-model)
